c Modular CNF with 3 modules
c Generated CNF instance
p cnf 30 480
9 1 4 0
9 1 -4 0
9 -1 4 0
-9 1 4 0
5 1 7 0
5 1 -7 0
5 -1 7 0
-5 1 7 0
7 3 8 0
7 3 -8 0
7 -3 8 0
-7 3 8 0
9 8 5 0
9 8 -5 0
9 -8 5 0
-9 8 5 0
7 8 2 0
7 8 -2 0
7 -8 2 0
-7 8 2 0
1 4 3 0
1 4 -3 0
1 -4 3 0
-1 4 3 0
4 9 3 0
4 9 -3 0
4 -9 3 0
-4 9 3 0
6 9 10 0
6 9 -10 0
6 -9 10 0
-6 9 10 0
9 10 4 0
9 10 -4 0
9 -10 4 0
-9 10 4 0
3 4 1 0
3 4 -1 0
3 -4 1 0
-3 4 1 0
5 8 9 0
5 8 -9 0
5 -8 9 0
-5 8 9 0
6 9 7 0
6 9 -7 0
6 -9 7 0
-6 9 7 0
2 1 6 0
2 1 -6 0
2 -1 6 0
-2 1 6 0
9 3 4 0
9 3 -4 0
9 -3 4 0
-9 3 4 0
8 2 4 0
8 2 -4 0
8 -2 4 0
-8 2 4 0
9 10 4 0
9 10 -4 0
9 -10 4 0
-9 10 4 0
2 10 8 0
2 10 -8 0
2 -10 8 0
-2 10 8 0
7 2 8 0
7 2 -8 0
7 -2 8 0
-7 2 8 0
4 1 8 0
4 1 -8 0
4 -1 8 0
-4 1 8 0
4 1 5 0
4 1 -5 0
4 -1 5 0
-4 1 5 0
2 7 3 0
2 7 -3 0
2 -7 3 0
-2 7 3 0
6 1 3 0
6 1 -3 0
6 -1 3 0
-6 1 3 0
2 8 1 0
2 8 -1 0
2 -8 1 0
-2 8 1 0
9 5 1 0
9 5 -1 0
9 -5 1 0
-9 5 1 0
6 9 1 0
6 9 -1 0
6 -9 1 0
-6 9 1 0
3 9 6 0
3 9 -6 0
3 -9 6 0
-3 9 6 0
1 3 7 0
1 3 -7 0
1 -3 7 0
-1 3 7 0
4 6 10 0
4 6 -10 0
4 -6 10 0
-4 6 10 0
2 1 10 0
2 1 -10 0
2 -1 10 0
-2 1 10 0
1 5 2 0
1 5 -2 0
1 -5 2 0
-1 5 2 0
8 7 10 0
8 7 -10 0
8 -7 10 0
-8 7 10 0
3 1 10 0
3 1 -10 0
3 -1 10 0
-3 1 10 0
7 3 5 0
7 3 -5 0
7 -3 5 0
-7 3 5 0
4 7 9 0
4 7 -9 0
4 -7 9 0
-4 7 9 0
2 4 8 0
2 4 -8 0
2 -4 8 0
-2 4 8 0
4 10 7 0
4 10 -7 0
4 -10 7 0
-4 10 7 0
9 4 7 0
9 4 -7 0
9 -4 7 0
-9 4 7 0
4 5 3 0
4 5 -3 0
4 -5 3 0
-4 5 3 0
6 4 5 0
6 4 -5 0
6 -4 5 0
-6 4 5 0
1 7 9 0
1 7 -9 0
1 -7 9 0
-1 7 9 0
11 18 12 0
11 18 -12 0
11 -18 12 0
-11 18 12 0
19 18 14 0
19 18 -14 0
19 -18 14 0
-19 18 14 0
15 19 18 0
15 19 -18 0
15 -19 18 0
-15 19 18 0
13 11 20 0
13 11 -20 0
13 -11 20 0
-13 11 20 0
16 14 11 0
16 14 -11 0
16 -14 11 0
-16 14 11 0
17 20 11 0
17 20 -11 0
17 -20 11 0
-17 20 11 0
12 18 11 0
12 18 -11 0
12 -18 11 0
-12 18 11 0
19 15 16 0
19 15 -16 0
19 -15 16 0
-19 15 16 0
20 13 19 0
20 13 -19 0
20 -13 19 0
-20 13 19 0
12 17 14 0
12 17 -14 0
12 -17 14 0
-12 17 14 0
17 13 19 0
17 13 -19 0
17 -13 19 0
-17 13 19 0
15 20 11 0
15 20 -11 0
15 -20 11 0
-15 20 11 0
15 19 12 0
15 19 -12 0
15 -19 12 0
-15 19 12 0
19 14 17 0
19 14 -17 0
19 -14 17 0
-19 14 17 0
13 12 16 0
13 12 -16 0
13 -12 16 0
-13 12 16 0
14 11 16 0
14 11 -16 0
14 -11 16 0
-14 11 16 0
17 18 14 0
17 18 -14 0
17 -18 14 0
-17 18 14 0
13 15 16 0
13 15 -16 0
13 -15 16 0
-13 15 16 0
17 15 16 0
17 15 -16 0
17 -15 16 0
-17 15 16 0
11 17 18 0
11 17 -18 0
11 -17 18 0
-11 17 18 0
19 17 11 0
19 17 -11 0
19 -17 11 0
-19 17 11 0
20 14 12 0
20 14 -12 0
20 -14 12 0
-20 14 12 0
17 16 15 0
17 16 -15 0
17 -16 15 0
-17 16 15 0
12 18 17 0
12 18 -17 0
12 -18 17 0
-12 18 17 0
12 17 18 0
12 17 -18 0
12 -17 18 0
-12 17 18 0
17 19 14 0
17 19 -14 0
17 -19 14 0
-17 19 14 0
18 12 19 0
18 12 -19 0
18 -12 19 0
-18 12 19 0
13 15 16 0
13 15 -16 0
13 -15 16 0
-13 15 16 0
15 12 16 0
15 12 -16 0
15 -12 16 0
-15 12 16 0
18 12 16 0
18 12 -16 0
18 -12 16 0
-18 12 16 0
17 19 11 0
17 19 -11 0
17 -19 11 0
-17 19 11 0
11 12 17 0
11 12 -17 0
11 -12 17 0
-11 12 17 0
19 12 18 0
19 12 -18 0
19 -12 18 0
-19 12 18 0
12 13 15 0
12 13 -15 0
12 -13 15 0
-12 13 15 0
12 15 20 0
12 15 -20 0
12 -15 20 0
-12 15 20 0
13 17 11 0
13 17 -11 0
13 -17 11 0
-13 17 11 0
18 19 20 0
18 19 -20 0
18 -19 20 0
-18 19 20 0
19 16 14 0
19 16 -14 0
19 -16 14 0
-19 16 14 0
11 16 12 0
11 16 -12 0
11 -16 12 0
-11 16 12 0
18 15 14 0
18 15 -14 0
18 -15 14 0
-18 15 14 0
26 28 24 0
26 28 -24 0
26 -28 24 0
-26 28 24 0
26 29 24 0
26 29 -24 0
26 -29 24 0
-26 29 24 0
29 25 23 0
29 25 -23 0
29 -25 23 0
-29 25 23 0
23 28 25 0
23 28 -25 0
23 -28 25 0
-23 28 25 0
26 30 24 0
26 30 -24 0
26 -30 24 0
-26 30 24 0
26 29 23 0
26 29 -23 0
26 -29 23 0
-26 29 23 0
23 26 30 0
23 26 -30 0
23 -26 30 0
-23 26 30 0
22 23 30 0
22 23 -30 0
22 -23 30 0
-22 23 30 0
23 29 21 0
23 29 -21 0
23 -29 21 0
-23 29 21 0
23 21 26 0
23 21 -26 0
23 -21 26 0
-23 21 26 0
30 23 25 0
30 23 -25 0
30 -23 25 0
-30 23 25 0
21 23 24 0
21 23 -24 0
21 -23 24 0
-21 23 24 0
21 24 29 0
21 24 -29 0
21 -24 29 0
-21 24 29 0
29 21 25 0
29 21 -25 0
29 -21 25 0
-29 21 25 0
25 24 23 0
25 24 -23 0
25 -24 23 0
-25 24 23 0
25 24 22 0
25 24 -22 0
25 -24 22 0
-25 24 22 0
25 30 27 0
25 30 -27 0
25 -30 27 0
-25 30 27 0
24 23 25 0
24 23 -25 0
24 -23 25 0
-24 23 25 0
29 28 23 0
29 28 -23 0
29 -28 23 0
-29 28 23 0
25 21 29 0
25 21 -29 0
25 -21 29 0
-25 21 29 0
22 21 26 0
22 21 -26 0
22 -21 26 0
-22 21 26 0
24 26 25 0
24 26 -25 0
24 -26 25 0
-24 26 25 0
30 23 27 0
30 23 -27 0
30 -23 27 0
-30 23 27 0
26 24 29 0
26 24 -29 0
26 -24 29 0
-26 24 29 0
23 21 24 0
23 21 -24 0
23 -21 24 0
-23 21 24 0
21 27 29 0
21 27 -29 0
21 -27 29 0
-21 27 29 0
26 30 27 0
26 30 -27 0
26 -30 27 0
-26 30 27 0
25 29 21 0
25 29 -21 0
25 -29 21 0
-25 29 21 0
22 21 25 0
22 21 -25 0
22 -21 25 0
-22 21 25 0
25 23 26 0
25 23 -26 0
25 -23 26 0
-25 23 26 0
23 22 25 0
23 22 -25 0
23 -22 25 0
-23 22 25 0
28 22 29 0
28 22 -29 0
28 -22 29 0
-28 22 29 0
21 28 23 0
21 28 -23 0
21 -28 23 0
-21 28 23 0
30 29 26 0
30 29 -26 0
30 -29 26 0
-30 29 26 0
23 30 24 0
23 30 -24 0
23 -30 24 0
-23 30 24 0
27 22 24 0
27 22 -24 0
27 -22 24 0
-27 22 24 0
27 24 23 0
27 24 -23 0
27 -24 23 0
-27 24 23 0
27 25 26 0
27 25 -26 0
27 -25 26 0
-27 25 26 0
29 26 21 0
29 26 -21 0
29 -26 21 0
-29 26 21 0
29 26 24 0
29 26 -24 0
29 -26 24 0
-29 26 24 0
